120
150
82
88
100
48
68
100
48
39
65
87
89
32
33
64
90
96
88
97
52
76
82
91
34
79
75
95
100
93
55
92
92
93
56
60
86
23
20
48
76
37
64
34
100
48
75
34
82
84
89
97
65
51
92
30
82
97
91
21
29
20
78
67
59
51
59
37
82
97
51
100
48
82
36
100
48
73
83
91
90
59
62
97
100
99
91
100
48
48
52
84
21
25
59
24
60
68
51
38
71
37
99
71
100
24
48
51
100
68
48
28
68
99
73
30
68
51
71
79
99
51
